NAME: instance_3140
TYPE: TSP
DIMENSION: 20
EDGE_WEIGHT_TYPE: EUC_2D
NODE_COORD_SECTION
0 5.86 74.40
1 36.41 34.00
2 85.03 37.44
3 42.07 65.22
4 70.12 79.21
5 83.85 93.32
6 65.59 37.67
7 90.18 81.38
8 50.31 21.78
9 23.45 75.37
10 41.37 89.32
11 20.02 33.77
12 34.84 35.76
13 80.88 60.21
14 23.95 59.37
15 77.38 21.53
16 69.36 68.81
17 69.03 34.70
18 87.29 47.70
19 5.52 48.32
EOF
